# avogadro generated ORCA input file 
# Basic Mode
# 
! HF OPT 6-31g(d) LargePrint

* xyz 0 1
   N       -0.17417        1.00947        0.00000
   H        0.84583        1.00947        0.00000
   H       -0.51417        1.61554        0.74664
   H       -0.51418        0.05982        0.15156
*

