# avogadro generated ORCA input file 
# Basic Mode
# 
! HF OPT 6-31g(d) LargePrint 

* xyz 0 1
   O       -2.01390        0.85668        0.00000
   F       -1.04390        0.85668        0.00000
   F       -2.33723        1.40238       -0.73387
*

